c "910790.clq"
p edge 200 784
e 1 5
e 1 7
e 1 11
e 1 12
e 1 17
e 1 18
e 1 23
e 1 25
e 1 43
e 1 47
e 1 53
e 1 56
e 1 58
e 1 84
e 1 93
e 1 102
e 1 113
e 1 126
e 1 129
e 1 152
e 1 159
e 1 164
e 1 170
e 2 5
e 2 6
e 2 10
e 2 13
e 2 15
e 2 30
e 2 42
e 2 44
e 2 62
e 2 78
e 2 95
e 2 120
e 2 124
e 3 5
e 3 6
e 3 7
e 3 8
e 3 9
e 3 12
e 3 13
e 3 15
e 3 19
e 3 20
e 3 22
e 3 24
e 3 26
e 3 29
e 3 34
e 3 35
e 3 36
e 3 40
e 3 45
e 3 70
e 3 71
e 3 76
e 3 86
e 3 88
e 3 114
e 3 116
e 3 117
e 3 135
e 3 144
e 3 167
e 3 185
e 3 187
e 3 192
e 3 195
e 3 198
e 4 5
e 4 6
e 4 7
e 4 9
e 4 10
e 4 13
e 4 14
e 4 16
e 4 26
e 4 32
e 4 35
e 4 38
e 4 55
e 4 64
e 4 69
e 4 71
e 4 81
e 4 84
e 4 102
e 4 128
e 4 147
e 4 155
e 4 163
e 4 181
e 5 6
e 5 8
e 5 14
e 5 16
e 5 25
e 5 26
e 5 27
e 5 30
e 5 31
e 5 33
e 5 57
e 5 64
e 5 82
e 5 83
e 5 93
e 5 94
e 5 99
e 5 116
e 5 133
e 5 177
e 6 7
e 6 8
e 6 9
e 6 10
e 6 11
e 6 14
e 6 16
e 6 20
e 6 24
e 6 26
e 6 27
e 6 31
e 6 33
e 6 39
e 6 40
e 6 45
e 6 48
e 6 49
e 6 50
e 6 51
e 6 59
e 6 63
e 6 67
e 6 72
e 6 77
e 6 79
e 6 86
e 6 96
e 6 97
e 6 106
e 6 111
e 6 112
e 6 118
e 6 131
e 6 133
e 6 136
e 6 150
e 6 152
e 6 157
e 6 162
e 6 165
e 6 174
e 6 182
e 6 186
e 7 8
e 7 9
e 7 11
e 7 15
e 7 16
e 7 17
e 7 18
e 7 21
e 7 22
e 7 24
e 7 27
e 7 33
e 7 36
e 7 38
e 7 41
e 7 43
e 7 45
e 7 48
e 7 55
e 7 58
e 7 62
e 7 69
e 7 72
e 7 74
e 7 76
e 7 79
e 7 86
e 7 94
e 7 95
e 7 101
e 7 104
e 7 105
e 7 108
e 7 112
e 7 133
e 7 136
e 7 151
e 7 165
e 7 173
e 7 177
e 7 193
e 7 200
e 8 12
e 8 13
e 8 14
e 8 17
e 8 19
e 8 23
e 8 30
e 8 40
e 8 47
e 8 50
e 8 78
e 8 92
e 8 96
e 8 102
e 8 105
e 8 109
e 8 119
e 8 148
e 8 157
e 8 163
e 8 182
e 8 185
e 9 10
e 9 11
e 9 12
e 9 17
e 9 18
e 9 23
e 9 24
e 9 28
e 9 30
e 9 41
e 9 51
e 9 52
e 9 60
e 9 68
e 9 75
e 9 80
e 9 87
e 9 94
e 9 100
e 9 103
e 9 111
e 9 128
e 9 133
e 9 141
e 9 143
e 9 147
e 9 159
e 9 175
e 9 180
e 9 183
e 9 191
e 9 192
e 9 195
e 9 196
e 10 15
e 10 31
e 10 32
e 10 34
e 10 37
e 10 43
e 10 46
e 10 54
e 10 60
e 10 73
e 10 74
e 10 89
e 10 93
e 10 99
e 10 102
e 10 110
e 10 115
e 10 139
e 10 159
e 10 182
e 10 184
e 11 18
e 11 76
e 11 107
e 11 165
e 12 19
e 12 28
e 12 41
e 12 42
e 12 53
e 12 66
e 12 79
e 12 92
e 13 21
e 13 59
e 13 73
e 13 120
e 14 27
e 14 29
e 14 32
e 14 39
e 14 44
e 14 52
e 14 56
e 14 57
e 14 81
e 14 84
e 14 89
e 14 98
e 14 100
e 14 117
e 14 129
e 14 137
e 14 147
e 14 148
e 14 150
e 14 156
e 14 157
e 14 158
e 14 174
e 15 37
e 15 73
e 15 74
e 15 82
e 15 87
e 15 89
e 15 95
e 15 107
e 15 110
e 15 156
e 15 178
e 15 179
e 15 194
e 15 197
e 16 78
e 16 112
e 16 148
e 16 197
e 17 20
e 17 21
e 17 41
e 17 51
e 17 61
e 17 98
e 17 115
e 17 121
e 17 130
e 17 140
e 17 144
e 17 154
e 17 175
e 18 19
e 18 20
e 18 23
e 18 28
e 18 29
e 18 35
e 18 39
e 18 42
e 18 50
e 18 63
e 18 67
e 18 83
e 18 93
e 18 99
e 18 109
e 18 118
e 18 119
e 18 123
e 18 135
e 18 141
e 18 142
e 18 143
e 18 155
e 19 21
e 19 22
e 19 25
e 19 34
e 19 54
e 19 90
e 19 116
e 19 127
e 19 153
e 20 28
e 20 46
e 20 59
e 20 82
e 20 132
e 20 140
e 20 155
e 20 192
e 21 22
e 21 25
e 21 31
e 21 35
e 21 36
e 21 47
e 21 60
e 21 65
e 21 72
e 21 103
e 21 141
e 21 176
e 22 39
e 22 48
e 22 50
e 22 71
e 22 75
e 22 81
e 22 122
e 22 128
e 22 166
e 22 181
e 23 46
e 23 49
e 23 53
e 23 151
e 23 199
e 24 32
e 24 36
e 24 44
e 24 132
e 24 145
e 25 44
e 25 58
e 25 86
e 25 120
e 25 149
e 25 160
e 25 194
e 25 195
e 26 61
e 26 68
e 26 77
e 26 104
e 26 127
e 26 136
e 26 171
e 26 172
e 26 183
e 27 55
e 27 62
e 28 29
e 28 33
e 28 34
e 28 48
e 28 61
e 28 66
e 28 67
e 28 75
e 28 80
e 28 88
e 28 126
e 28 178
e 29 37
e 29 46
e 29 56
e 29 96
e 29 103
e 29 156
e 29 165
e 30 38
e 30 40
e 30 56
e 30 65
e 30 66
e 30 84
e 30 92
e 30 97
e 30 104
e 30 108
e 30 117
e 30 161
e 31 68
e 31 138
e 31 164
e 31 184
e 32 42
e 32 51
e 32 54
e 32 62
e 32 71
e 32 81
e 32 91
e 32 98
e 33 43
e 33 159
e 34 45
e 34 189
e 35 64
e 35 65
e 35 69
e 35 137
e 35 139
e 35 153
e 35 166
e 36 37
e 36 38
e 36 49
e 36 57
e 36 82
e 36 109
e 36 113
e 36 157
e 36 174
e 36 190
e 37 106
e 37 125
e 37 126
e 37 131
e 37 193
e 38 67
e 38 70
e 38 85
e 38 104
e 38 109
e 38 114
e 38 131
e 38 152
e 39 54
e 39 55
e 39 87
e 39 89
e 39 145
e 40 52
e 40 63
e 40 153
e 40 160
e 41 49
e 41 64
e 41 73
e 41 91
e 41 101
e 41 187
e 41 188
e 41 197
e 42 105
e 42 168
e 43 47
e 43 70
e 43 90
e 43 100
e 43 108
e 43 143
e 43 169
e 43 178
e 44 103
e 46 52
e 47 134
e 48 114
e 48 149
e 49 59
e 49 60
e 49 179
e 51 181
e 51 193
e 52 53
e 52 57
e 52 61
e 52 92
e 52 137
e 52 186
e 53 58
e 53 88
e 53 129
e 53 143
e 53 151
e 53 169
e 54 77
e 54 78
e 54 85
e 54 97
e 54 126
e 54 186
e 54 187
e 55 88
e 56 72
e 56 111
e 56 125
e 56 130
e 56 189
e 56 198
e 58 69
e 58 79
e 58 96
e 58 99
e 58 115
e 58 169
e 58 170
e 59 63
e 59 66
e 59 183
e 60 83
e 61 90
e 61 142
e 61 168
e 62 80
e 62 101
e 62 127
e 62 141
e 62 193
e 63 91
e 64 65
e 64 116
e 64 122
e 65 83
e 65 107
e 65 138
e 66 68
e 66 76
e 66 161
e 66 173
e 66 183
e 66 186
e 67 105
e 67 137
e 67 140
e 68 70
e 68 75
e 68 121
e 69 74
e 69 77
e 69 108
e 69 124
e 70 124
e 70 134
e 70 149
e 70 152
e 70 164
e 71 98
e 71 119
e 71 130
e 71 142
e 72 156
e 72 181
e 74 85
e 74 90
e 75 113
e 75 161
e 76 80
e 76 91
e 76 94
e 76 112
e 76 134
e 76 198
e 77 97
e 77 113
e 77 163
e 78 87
e 78 120
e 78 166
e 78 185
e 79 163
e 79 194
e 82 85
e 83 121
e 83 172
e 84 95
e 84 106
e 85 130
e 85 145
e 85 164
e 85 190
e 86 101
e 86 118
e 86 167
e 87 168
e 87 179
e 88 127
e 90 115
e 90 147
e 90 171
e 91 110
e 91 128
e 91 145
e 91 158
e 91 172
e 92 100
e 92 129
e 92 187
e 93 144
e 94 110
e 94 142
e 94 177
e 95 139
e 95 179
e 95 190
e 96 123
e 98 160
e 99 107
e 99 132
e 99 167
e 100 125
e 100 134
e 100 168
e 101 111
e 102 162
e 103 106
e 104 124
e 104 135
e 104 178
e 104 184
e 105 122
e 105 123
e 106 135
e 106 138
e 106 191
e 107 150
e 108 125
e 108 173
e 109 119
e 109 123
e 109 146
e 110 114
e 110 150
e 110 161
e 111 136
e 112 117
e 112 121
e 112 158
e 113 131
e 113 146
e 113 162
e 113 177
e 114 118
e 114 169
e 114 196
e 115 173
e 119 122
e 119 184
e 121 132
e 121 138
e 121 144
e 121 146
e 121 175
e 124 153
e 128 139
e 128 154
e 128 171
e 128 176
e 131 140
e 132 167
e 132 196
e 133 170
e 135 154
e 135 174
e 136 149
e 136 155
e 138 199
e 139 146
e 139 148
e 139 182
e 139 188
e 139 196
e 139 199
e 139 200
e 141 154
e 141 176
e 142 166
e 142 175
e 143 170
e 143 172
e 143 191
e 143 200
e 144 158
e 145 162
e 145 180
e 148 151
e 149 189
e 153 185
e 155 191
e 156 160
e 160 171
e 165 176
e 169 198
e 169 200
e 170 180
e 171 180
e 172 194
e 174 192
e 177 188
e 178 190
e 179 199
e 180 197
e 181 189
e 186 188
e 186 195
